Base=4;
C=71;
start_setup=[|0,0,0,0,0,13,0,4,0,0,0,0,0,0,0,16
             |0,0,0,0,0,0,0,0,0,0,0,0,0,0,0,11
             |0,4,0,0,0,0,0,0,0,0,0,0,0,0,0,0
             |0,0,0,0,2,0,7,0,0,0,3,0,0,0,8,0
             |0,0,0,4,0,0,0,0,0,0,0,0,11,5,15,0
             |0,0,0,0,0,0,0,6,0,0,0,0,0,0,0,0
             |0,0,0,0,0,0,9,0,0,0,0,11,0,0,7,0
             |15,0,0,0,0,0,0,0,0,0,0,0,0,0,1,0
             |0,2,0,0,9,0,0,0,13,0,0,0,0,0,0,0
             |0,0,0,0,0,0,0,0,0,2,11,0,0,0,0,7
             |0,0,0,0,0,0,13,0,0,1,4,0,14,0,11,0
             |0,0,0,0,0,0,0,0,5,0,9,0,0,0,0,0
             |4,0,0,0,0,7,0,0,0,0,0,9,16,0,0,0
             |0,0,0,0,0,0,0,0,4,0,2,0,12,11,0,0
             |0,11,10,0,0,3,0,1,0,15,0,0,0,0,0,0
             |0,0,0,0,0,0,0,9,0,7,0,5,4,3,0,0
|];
target_sum=[52,58,4,44,36,13,14,38,72,37,63,19,75,28,8,41,28,8,6,21,31,11,17,52,22,7,54,22,24,30,14,64,10,29,44,55,74,48,56,71,32,10,25,12,22,48,10,35,17,104,38,23,8,3,15,46,40,23,10,53,41,4,11,22,31,18,2,17,19,23,14];
tile2cage=[
3,50,50,4,4,4,57,27,27,27,24,49,9,16,16,16
,3,50,50,50,4,57,57,8,27,62,24,49,9,16,9,9
,48,50,50,50,4,19,57,8,27,53,24,24,9,9,9,47
,48,50,50,21,21,21,57,8,27,46,24,24,45,9,17,59
,48,50,50,66,66,67,43,43,43,46,29,45,45,17,17,59
,48,69,70,11,11,51,63,63,43,46,29,29,42,1,1,1
,69,69,70,11,11,51,51,54,43,46,35,35,35,1,26,58
,2,71,25,25,11,11,51,13,13,13,35,15,15,1,1,58
,2,2,2,22,34,11,51,13,13,13,41,39,39,39,5,58
,2,2,55,34,34,34,34,13,68,68,41,38,39,39,5,28
,20,2,55,55,44,44,37,37,36,41,41,38,40,39,5,28
,20,14,14,37,37,37,37,37,36,36,41,38,40,5,5,5
,20,32,60,60,60,65,65,65,36,52,52,38,40,40,61,61
,18,32,60,60,60,60,31,65,36,36,52,38,40,40,12,61
,32,32,56,56,10,64,64,64,64,36,7,30,30,33,12,61
,32,32,56,56,10,10,10,23,23,6,6,30,30,33,12,12];
